(set-logic ALL)
(declare-var i (BitVec 32))
(declare-var i! (BitVec 32))
(declare-var conf_0 (BitVec 32))
(declare-var conf_0! (BitVec 32))
(declare-var sn (BitVec 32))
(declare-var sn! (BitVec 32))
(declare-var i_0 (BitVec 32))
(declare-var i_0! (BitVec 32))
(declare-var i_1 (BitVec 32))
(declare-var i_1! (BitVec 32))
(declare-var i_2 (BitVec 32))
(declare-var i_2! (BitVec 32))
(declare-var i_3 (BitVec 32))
(declare-var i_3! (BitVec 32))
(declare-var conf_0_0 (BitVec 32))
(declare-var conf_0_0! (BitVec 32))
(declare-var conf_0_1 (BitVec 32))
(declare-var conf_0_1! (BitVec 32))
(declare-var conf_0_2 (BitVec 32))
(declare-var conf_0_2! (BitVec 32))
(declare-var conf_0_3 (BitVec 32))
(declare-var conf_0_3! (BitVec 32))
(declare-var sn_0 (BitVec 32))
(declare-var sn_0! (BitVec 32))
(declare-var sn_1 (BitVec 32))
(declare-var sn_1! (BitVec 32))
(declare-var sn_2 (BitVec 32))
(declare-var sn_2! (BitVec 32))
(declare-var sn_3 (BitVec 32))
(declare-var sn_3! (BitVec 32))
(synth-fun inv-f((parameter0 (BitVec 32))(parameter1 (BitVec 32))(parameter2 (BitVec 32))(parameter3 (BitVec 32))(parameter4 (BitVec 32))(parameter5 (BitVec 32))(parameter6 (BitVec 32))(parameter7 (BitVec 32))(parameter8 (BitVec 32))(parameter9 (BitVec 32))(parameter10 (BitVec 32))(parameter11 (BitVec 32))(parameter12 (BitVec 32))(parameter13 (BitVec 32))(parameter14 (BitVec 32)))Bool) 
(constraint (=> (and (and (and (and (and (= i i_1) (= conf_0 conf_0_0) ) (= sn sn_1) ) (= conf_0_0 (_ bv4 32)) ) (= sn_1 (_ bv0 32)) ) (= i_1 (_ bv1 32)) )(inv-f i conf_0 sn i_0 i_1 i_2 i_3 conf_0_0 conf_0_1 conf_0_2 conf_0_3 sn_0 sn_1 sn_2 sn_3 )))
(constraint (=> (and (inv-f i conf_0 sn i_0 i_1 i_2 i_3 conf_0_0 conf_0_1 conf_0_2 conf_0_3 sn_0 sn_1 sn_2 sn_3 ) (or (and (and (and (and (and (and (and (= i_2 i) (= conf_0_1 conf_0) ) (= sn_2 sn) ) (= i_2 i!) ) (= conf_0_1 conf_0!) ) (= sn_2 sn!) ) (= conf_0 conf_0!) ) (= sn sn!) ) (and (and (and (and (and (and (and (and (and (and (= i_2 i) (= conf_0_1 conf_0) ) (= sn_2 sn) ) (bvule i_2 (_ bv8 32)) ) (= i_3 (bvadd i_2 (_ bv1 32))) ) (= conf_0_2 (_ bv576 32)) ) (= sn_3 (bvadd sn_2 (_ bv1 32))) ) (= conf_0_3 (bvsub conf_0_2 (_ bv206 32))) ) (= i_3 i!) ) (= conf_0_3 conf_0!) ) (= sn_3 sn!) ) ) )(inv-f i! conf_0! sn! i_0! i_1! i_2! i_3! conf_0_0! conf_0_1! conf_0_2! conf_0_3! sn_0! sn_1! sn_2! sn_3! )))
(constraint (=> (inv-f i conf_0 sn i_0 i_1 i_2 i_3 conf_0_0 conf_0_1 conf_0_2 conf_0_3 sn_0 sn_1 sn_2 sn_3 )(or (not (and (and (= i i_2) (= conf_0 conf_0_1) ) (= sn sn_2) )) (not (and (and (not (bvule i_2 (_ bv8 32))) (not (= sn_2 (_ bv8 32))) ) (not (= sn_2 (_ bv0 32))) )) )))
(check-synth)

